Ga8 O12                                 
   1.00000000000000     
    11.8599069999999998    0.0000000000000000   -2.9196580000000001
     0.0000000000000000    3.0371000000000001    0.0000000000000000
     0.0000000000000000    0.0000000000000000    5.7980999999999998
   Ga   O 
     8    12
Direct
  0.9095000000000013  0.0000000000000000  0.2053999999999974
  0.0904999999999987  0.0000000000000000  0.7946000000000026
  0.4095000000000013  0.5000000000000000  0.2053999999999974
  0.5904999999999987  0.5000000000000000  0.7946000000000026
  0.8413400000000024  0.5000000000000000  0.6859800000000007
  0.1586599999999976  0.5000000000000000  0.3140199999999993
  0.3413400000000024  0.0000000000000000  0.6859800000000007
  0.6586599999999976  0.0000000000000000  0.3140199999999993
  0.8355000000000032  0.0000000000000000  0.8902000000000001
  0.1644999999999968  0.0000000000000000  0.1097999999999999
  0.3355000000000032  0.5000000000000000  0.8902000000000001
  0.6644999999999968  0.5000000000000000  0.1097999999999999
  0.8267000000000024  0.0000000000000000  0.4367999999999981
  0.1732999999999976  0.0000000000000000  0.5632000000000019
  0.3267000000000024  0.5000000000000000  0.4367999999999981
  0.6732999999999976  0.5000000000000000  0.5632000000000019
  0.0041000000000011  0.5000000000000000  0.7434000000000012
  0.9958999999999989  0.5000000000000000  0.2565999999999988
  0.5041000000000011  0.0000000000000000  0.7434000000000012
  0.4958999999999989  0.0000000000000000  0.2565999999999988
 
  0.00000000E+00  0.00000000E+00  0.00000000E+00
  0.00000000E+00  0.00000000E+00  0.00000000E+00
  0.00000000E+00  0.00000000E+00  0.00000000E+00
  0.00000000E+00  0.00000000E+00  0.00000000E+00
  0.00000000E+00  0.00000000E+00  0.00000000E+00
  0.00000000E+00  0.00000000E+00  0.00000000E+00
  0.00000000E+00  0.00000000E+00  0.00000000E+00
  0.00000000E+00  0.00000000E+00  0.00000000E+00
  0.00000000E+00  0.00000000E+00  0.00000000E+00
  0.00000000E+00  0.00000000E+00  0.00000000E+00
  0.00000000E+00  0.00000000E+00  0.00000000E+00
  0.00000000E+00  0.00000000E+00  0.00000000E+00
  0.00000000E+00  0.00000000E+00  0.00000000E+00
  0.00000000E+00  0.00000000E+00  0.00000000E+00
  0.00000000E+00  0.00000000E+00  0.00000000E+00
  0.00000000E+00  0.00000000E+00  0.00000000E+00
  0.00000000E+00  0.00000000E+00  0.00000000E+00
  0.00000000E+00  0.00000000E+00  0.00000000E+00
  0.00000000E+00  0.00000000E+00  0.00000000E+00
  0.00000000E+00  0.00000000E+00  0.00000000E+00
