In8 Ga8 O24                             
   1.00000000000000     
     6.6200000000000001    0.0000000000000000    0.0000000000000000
    -3.3100000000000001    5.7330880000000004    0.0000000000000000
     0.0000000000000000    0.0000000000000000   12.0389999999999997
   In   Ga   O 
     8     8    24
Direct
  0.0000000000000000  0.0000000000000000  0.0000000000000000
  0.0000000000000000  0.5000000000000000  0.0000000000000000
  0.0000000000000000  0.0000000000000000  0.5000000000000000
  0.0000000000000000  0.5000000000000000  0.5000000000000000
  0.5000000000000000  0.0000000000000000  0.0000000000000000
  0.5000000000000000  0.5000000000000000  0.0000000000000000
  0.5000000000000000  0.0000000000000000  0.5000000000000000
  0.5000000000000000  0.5000000000000000  0.5000000000000000
  0.1666669999999968  0.3333330000000032  0.2500000000000000
  0.1666669999999968  0.8333330000000032  0.2500000000000000
  0.8333330000000032  0.1666669999999968  0.7500000000000000
  0.8333330000000032  0.6666669999999968  0.7500000000000000
  0.6666669999999968  0.3333330000000032  0.2500000000000000
  0.6666669999999968  0.8333330000000032  0.2500000000000000
  0.3333330000000032  0.1666669999999968  0.7500000000000000
  0.3333330000000032  0.6666669999999968  0.7500000000000000
  0.0000000000000000  0.0000000000000000  0.2500000000000000
  0.0000000000000000  0.5000000000000000  0.2500000000000000
  0.0000000000000000  0.0000000000000000  0.7500000000000000
  0.0000000000000000  0.5000000000000000  0.7500000000000000
  0.5000000000000000  0.0000000000000000  0.2500000000000000
  0.5000000000000000  0.5000000000000000  0.2500000000000000
  0.5000000000000000  0.0000000000000000  0.7500000000000000
  0.5000000000000000  0.5000000000000000  0.7500000000000000
  0.1666669999999968  0.3333330000000032  0.0861000000000018
  0.1666669999999968  0.8333330000000032  0.0861000000000018
  0.8333330000000032  0.1666669999999968  0.9138999999999982
  0.8333330000000032  0.6666669999999968  0.9138999999999982
  0.6666669999999968  0.3333330000000032  0.0861000000000018
  0.6666669999999968  0.8333330000000032  0.0861000000000018
  0.3333330000000032  0.1666669999999968  0.9138999999999982
  0.3333330000000032  0.6666669999999968  0.9138999999999982
  0.8333330000000032  0.1666669999999968  0.5861000000000018
  0.8333330000000032  0.6666669999999968  0.5861000000000018
  0.1666669999999968  0.3333330000000032  0.4138999999999982
  0.1666669999999968  0.8333330000000032  0.4138999999999982
  0.3333330000000032  0.1666669999999968  0.5861000000000018
  0.3333330000000032  0.6666669999999968  0.5861000000000018
  0.6666669999999968  0.3333330000000032  0.4138999999999982
  0.6666669999999968  0.8333330000000032  0.4138999999999982
 
  0.00000000E+00  0.00000000E+00  0.00000000E+00
  0.00000000E+00  0.00000000E+00  0.00000000E+00
  0.00000000E+00  0.00000000E+00  0.00000000E+00
  0.00000000E+00  0.00000000E+00  0.00000000E+00
  0.00000000E+00  0.00000000E+00  0.00000000E+00
  0.00000000E+00  0.00000000E+00  0.00000000E+00
  0.00000000E+00  0.00000000E+00  0.00000000E+00
  0.00000000E+00  0.00000000E+00  0.00000000E+00
  0.00000000E+00  0.00000000E+00  0.00000000E+00
  0.00000000E+00  0.00000000E+00  0.00000000E+00
  0.00000000E+00  0.00000000E+00  0.00000000E+00
  0.00000000E+00  0.00000000E+00  0.00000000E+00
  0.00000000E+00  0.00000000E+00  0.00000000E+00
  0.00000000E+00  0.00000000E+00  0.00000000E+00
  0.00000000E+00  0.00000000E+00  0.00000000E+00
  0.00000000E+00  0.00000000E+00  0.00000000E+00
  0.00000000E+00  0.00000000E+00  0.00000000E+00
  0.00000000E+00  0.00000000E+00  0.00000000E+00
  0.00000000E+00  0.00000000E+00  0.00000000E+00
  0.00000000E+00  0.00000000E+00  0.00000000E+00
  0.00000000E+00  0.00000000E+00  0.00000000E+00
  0.00000000E+00  0.00000000E+00  0.00000000E+00
  0.00000000E+00  0.00000000E+00  0.00000000E+00
  0.00000000E+00  0.00000000E+00  0.00000000E+00
  0.00000000E+00  0.00000000E+00  0.00000000E+00
  0.00000000E+00  0.00000000E+00  0.00000000E+00
  0.00000000E+00  0.00000000E+00  0.00000000E+00
  0.00000000E+00  0.00000000E+00  0.00000000E+00
  0.00000000E+00  0.00000000E+00  0.00000000E+00
  0.00000000E+00  0.00000000E+00  0.00000000E+00
  0.00000000E+00  0.00000000E+00  0.00000000E+00
  0.00000000E+00  0.00000000E+00  0.00000000E+00
  0.00000000E+00  0.00000000E+00  0.00000000E+00
  0.00000000E+00  0.00000000E+00  0.00000000E+00
  0.00000000E+00  0.00000000E+00  0.00000000E+00
  0.00000000E+00  0.00000000E+00  0.00000000E+00
  0.00000000E+00  0.00000000E+00  0.00000000E+00
  0.00000000E+00  0.00000000E+00  0.00000000E+00
  0.00000000E+00  0.00000000E+00  0.00000000E+00
  0.00000000E+00  0.00000000E+00  0.00000000E+00
