Default gamma
89
Reciprocal
0.0 -0.5 -2.1538917589976438e-19 1 X
0.0 -0.45454545454545453 -1.8741239939171067e-17 1 
0.0 -0.4090909090909091 2.761063399834311e-17 1 
0.0 -0.3636363636363637 9.084783235071808e-18 1 
0.0 -0.31818181818181823 2.2997794822193245e-17 1 
0.0 -0.27272727272727276 -9.405843748892514e-18 1 
0.0 -0.22727272727272732 1.838495564604338e-17 1 
0.0 -0.18181818181818185 4.542391617535904e-18 1 
0.0 -0.13636363636363638 4.5776153968428846e-18 1 
0.0 -0.0909090909090909 4.612839176149865e-18 1 
0.0 -0.04545454545454548 -1.512685136993165e-17 1 
0.0 0.0 0.0 1 \Gamma
0.0 0.0 0.0 1 \Gamma
0.045454545454545456 1.6629962602270472e-18 -4.257063143759706e-19 1 
0.09090909090909091 3.3259925204540944e-18 -8.514126287519412e-19 1 
0.13636363636363635 8.349455109078918e-18 -1.2771189431279119e-18 1 
0.18181818181818182 6.651985040908189e-18 -1.7028252575038825e-18 1 
0.2272727272727273 1.1675447629533012e-17 -2.128531571879853e-18 1 
0.2727272727272727 1.6698910218157836e-17 -2.5542378862558237e-18 1 
0.3181818181818182 7.844584998968203e-18 -2.9799442006317944e-18 1 
0.36363636363636365 1.3303970081816378e-17 -3.405650515007765e-18 1 
0.40909090909090917 -9.428142945187712e-18 -3.831356829383736e-18 1 
0.4545454545454546 2.3350895259066025e-17 -4.257063143759706e-18 1 
0.5 6.187822320619347e-19 -4.682769458135677e-18 1 Y
0.5 -0.5 4.3823786372537005e-18 1 L
0.45833333333333337 -0.45833333333333337 9.019044214944611e-18 1 
0.4166666666666667 -0.4166666666666667 1.3655709792635522e-17 1 
0.375 -0.375 1.3695124833801118e-17 1 
0.33333333333333337 -0.3333333333333333 4.454002603677572e-18 1 
0.2916666666666667 -0.2916666666666667 4.493417644843168e-18 1 
0.25 -0.25 2.1911893186268502e-18 1 
0.20833333333333334 -0.20833333333333331 9.169498263699674e-18 1 
0.16666666666666669 -0.16666666666666666 -2.413267333805785e-18 1 
0.12500000000000003 -0.12499999999999999 -2.373852292640189e-18 1 
0.08333333333333331 -0.0833333333333333 -2.3344372514745933e-18 1 
0.04166666666666671 -0.0416666666666667 7.506398754146739e-18 1 
0.0 0.0 0.0 1 \Gamma
0.0 0.0 0.0 1 \Gamma
-0.04166666666666667 -3.3401748745854897e-20 0.041666666666666664 1 
-0.08333333333333334 -6.680349749170979e-20 0.08333333333333333 1 
-0.125 -1.5469555801548366e-19 0.125 1 
-0.16666666666666669 -1.3360699498341959e-19 0.16666666666666666 1 
-0.20833333333333337 -7.26937358297026e-18 0.20833333333333334 1 
-0.25 -3.0939111603096733e-19 0.25 1 
-0.2916666666666667 -5.062638001105791e-19 0.2916666666666667 1 
-0.33333333333333337 -2.6721398996683918e-19 0.3333333333333333 1 
-0.375 -1.4341874481860908e-17 0.375 1 
-0.41666666666666674 -1.453874716594052e-17 0.4166666666666667 1 
-0.4583333333333333 -1.429969735579678e-17 0.4583333333333333 1 
-0.5 -6.187822320619347e-19 0.5 1 Z
-0.5 -0.5000000000000001 0.5 1 N
-0.47058823529411764 -0.4705882352941177 0.47058823529411764 1 
-0.44117647058823534 -0.44117647058823534 0.4411764705882353 1 
-0.4117647058823529 -0.4117647058823531 0.411764705882353 1 
-0.3823529411764706 -0.3823529411764707 0.38235294117647056 1 
-0.35294117647058826 -0.3529411764705883 0.3529411764705882 1 
-0.3235294117647059 -0.3235294117647059 0.3235294117647059 1 
-0.2941176470588236 -0.2941176470588236 0.29411764705882354 1 
-0.2647058823529412 -0.26470588235294124 0.2647058823529412 1 
-0.23529411764705882 -0.23529411764705885 0.23529411764705882 1 
-0.2058823529411765 -0.20588235294117646 0.20588235294117646 1 
-0.17647058823529413 -0.17647058823529416 0.1764705882352941 1 
-0.14705882352941174 -0.1470588235294118 0.14705882352941174 1 
-0.11764705882352947 -0.11764705882352944 0.11764705882352942 1 
-0.08823529411764709 -0.08823529411764713 0.08823529411764709 1 
-0.058823529411764705 -0.05882352941176476 0.05882352941176472 1 
-0.02941176470588238 -0.02941176470588237 0.029411764705882363 1 
0.0 0.0 0.0 1 \Gamma
0.0 0.0 0.0 1 \Gamma
0.0 0.0 0.06249999999999999 1 
0.0 0.0 0.12499999999999999 1 
0.0 0.0 0.1875 1 
0.0 0.0 0.24999999999999997 1 
0.0 0.0 0.31249999999999994 1 
0.0 0.0 0.375 1 
0.0 0.0 0.4375 1 
0.0 0.0 0.49999999999999994 1 M
0.0 -0.5 0.49999999999999994 1 R
0.0 -0.45454545454545453 0.45454545454545453 1 
0.0 -0.4090909090909091 0.40909090909090906 1 
0.0 -0.3636363636363637 0.36363636363636365 1 
0.0 -0.31818181818181823 0.3181818181818182 1 
0.0 -0.27272727272727276 0.2727272727272727 1 
0.0 -0.22727272727272732 0.2272727272727273 1 
0.0 -0.18181818181818185 0.18181818181818182 1 
0.0 -0.13636363636363638 0.13636363636363635 1 
0.0 -0.0909090909090909 0.09090909090909087 1 
0.0 -0.04545454545454548 0.045454545454545484 1 
0.0 0.0 0.0 1 \Gamma
